p tw 86 192
0 1
0 9
0 26
0 27
1 12
2 3
2 4
2 15
2 72
2 84
3 4
3 29
3 40
4 16
4 60
5 6
5 17
5 83
6 18
6 75
7 8
7 49
8 24
8 58
8 59
9 10
9 11
9 12
9 26
9 27
10 11
10 12
10 61
10 62
11 12
11 46
11 47
11 48
13 14
13 15
13 16
13 79
13 85
14 15
14 16
14 20
15 16
15 72
15 84
16 60
17 18
17 19
17 83
18 19
18 75
19 25
19 63
20 84
20 85
21 22
21 23
21 24
21 25
21 57
22 23
22 24
22 25
22 34
22 35
22 36
23 24
23 25
23 65
23 80
24 25
24 58
24 59
25 63
26 27
26 61
27 48
27 62
27 69
27 70
28 29
28 37
28 45
29 40
30 31
30 32
30 33
30 51
30 64
30 74
31 32
31 33
31 42
32 33
32 50
32 78
33 52
34 35
34 36
34 57
34 79
35 36
35 49
35 59
35 65
36 63
37 38
37 39
37 40
37 41
37 45
38 39
38 40
38 41
38 53
38 54
39 40
39 41
39 44
39 71
40 41
41 77
41 81
42 74
43 44
43 45
43 67
43 68
44 45
44 71
46 47
46 48
46 73
47 48
47 55
47 56
48 62
48 69
48 70
49 59
49 65
50 51
50 52
50 78
51 52
51 64
51 74
53 54
53 81
54 76
54 77
55 56
55 69
56 64
57 79
58 59
58 80
59 65
60 72
61 62
62 69
62 70
64 74
65 80
66 67
66 78
66 82
67 68
68 71
68 75
68 82
68 83
69 70
70 73
70 76
71 75
71 82
71 83
72 84
73 76
75 82
75 83
76 77
77 81
78 82
79 85
82 83
84 85
